NAME : inputfile.tour
COMMENT : Length = 215
TYPE : TOUR
DIMENSION : 60
TOUR_SECTION  
54
7
49
28
23
53
9
58
12
60
35
16
38
44
2
17
1
25
29
13
37
45
41
15
52
19
27
39
22
10
47
51
21
14
59
40
57
42
31
43
56
48
3
8
33
4
34
18
5
20
6
46
11
32
26
50
24
55
30
36
-1
EOF
